NAME          
ROWS
 N  OBJ
 L  c1
 L  c2
 L  c3
COLUMNS
    MARKER    'MARKER'                 'INTORG'
    x[1]      c1        746
    x[1]      c2        611
    x[1]      c3        952
    x[1]      OBJ       -577
    x[2]      c1        686
    x[2]      c2        615
    x[2]      c3        808
    x[2]      OBJ       -127
    x[3]      c1        612
    x[3]      c2        454
    x[3]      c3        862
    x[3]      OBJ       -133
    x[4]      c1        707
    x[4]      c2        13
    x[4]      c3        241
    x[4]      OBJ       -556
    x[5]      c1        301
    x[5]      c2        58
    x[5]      c3        513
    x[5]      OBJ       -356
    x[6]      c1        506
    x[6]      c2        695
    x[6]      c3        880
    x[6]      OBJ       -811
    x[7]      c1        837
    x[7]      c2        107
    x[7]      c3        621
    x[7]      OBJ       -785
    x[8]      c1        622
    x[8]      c2        797
    x[8]      c3        820
    x[8]      OBJ       -7
    x[9]      c1        719
    x[9]      c2        933
    x[9]      c3        846
    x[9]      OBJ       -623
    x[10]     c1        566
    x[10]     c2        41
    x[10]     c3        335
    x[10]     OBJ       -752
    x[11]     c1        113
    x[11]     c2        774
    x[11]     c3        26
    x[11]     OBJ       -809
    x[12]     c1        758
    x[12]     c2        134
    x[12]     c3        22
    x[12]     OBJ       -720
    x[13]     c1        593
    x[13]     c2        57
    x[13]     c3        199
    x[13]     OBJ       -731
    x[14]     c1        189
    x[14]     c2        480
    x[14]     c3        460
    x[14]     OBJ       -274
    x[15]     c1        867
    x[15]     c2        667
    x[15]     c3        364
    x[15]     OBJ       -392
    x[16]     c1        631
    x[16]     c2        459
    x[16]     c3        943
    x[16]     OBJ       -91
    x[17]     c1        456
    x[17]     c2        621
    x[17]     c3        976
    x[17]     OBJ       -529
    x[18]     c1        130
    x[18]     c2        530
    x[18]     c3        198
    x[18]     OBJ       -966
    x[19]     c1        567
    x[19]     c2        56
    x[19]     c3        314
    x[19]     OBJ       -112
    x[20]     c1        873
    x[20]     c2        618
    x[20]     c3        555
    x[20]     OBJ       -89
    x[21]     c1        875
    x[21]     c2        711
    x[21]     c3        301
    x[21]     OBJ       -438
    x[22]     c1        229
    x[22]     c2        549
    x[22]     c3        419
    x[22]     OBJ       -304
    x[23]     c1        389
    x[23]     c2        143
    x[23]     c3        794
    x[23]     OBJ       -207
    x[24]     c1        788
    x[24]     c2        574
    x[24]     c3        587
    x[24]     OBJ       -644
    x[25]     c1        276
    x[25]     c2        257
    x[25]     c3        310
    x[25]     OBJ       -736
RHS
    rhs       c1        7018
    rhs       c2        5477
    rhs       c3        6673
RANGES
BOUNDS
 LO bounds    x[1]      0
 PL bounds    x[1]
 LO bounds    x[2]      0
 PL bounds    x[2]
 LO bounds    x[3]      0
 PL bounds    x[3]
 LO bounds    x[4]      0
 PL bounds    x[4]
 LO bounds    x[5]      0
 PL bounds    x[5]
 LO bounds    x[6]      0
 PL bounds    x[6]
 LO bounds    x[7]      0
 PL bounds    x[7]
 LO bounds    x[8]      0
 PL bounds    x[8]
 LO bounds    x[9]      0
 PL bounds    x[9]
 LO bounds    x[10]     0
 PL bounds    x[10]
 LO bounds    x[11]     0
 PL bounds    x[11]
 LO bounds    x[12]     0
 PL bounds    x[12]
 LO bounds    x[13]     0
 PL bounds    x[13]
 LO bounds    x[14]     0
 PL bounds    x[14]
 LO bounds    x[15]     0
 PL bounds    x[15]
 LO bounds    x[16]     0
 PL bounds    x[16]
 LO bounds    x[17]     0
 PL bounds    x[17]
 LO bounds    x[18]     0
 PL bounds    x[18]
 LO bounds    x[19]     0
 PL bounds    x[19]
 LO bounds    x[20]     0
 PL bounds    x[20]
 LO bounds    x[21]     0
 PL bounds    x[21]
 LO bounds    x[22]     0
 PL bounds    x[22]
 LO bounds    x[23]     0
 PL bounds    x[23]
 LO bounds    x[24]     0
 PL bounds    x[24]
 LO bounds    x[25]     0
 PL bounds    x[25]
ENDATA
